p cnf 804 2458
1 2 3 4 0
-1 -2 0
-1 -3 0
-1 -4 0
-2 -3 0
-2 -4 0
-3 -4 0
5 -6 -7 0
6 -5 -7 0
-5 -6 7 0
6 5 7 0
-1 -7 0
6 -8 -9 0
8 -6 -9 0
9 -6 -8 0
9 6 8 0
-2 9 0
-5 10 0
-8 10 0
-11 10 0
5 8 11 -10 0
6 -10 -12 0
-6 10 -12 0
-6 -10 12 0
6 10 12 0
-3 12 0
5 13 0
8 13 0
11 13 0
-5 -8 -11 -13 0
-6 13 -14 0
6 -13 -14 0
14 -13 -6 0
6 13 14 0
-4 -14 0
8 -15 -16 0
15 -8 -16 0
-8 -15 16 0
8 15 16 0
-1 -16 0
15 -11 -17 0
11 -15 -17 0
17 -15 -11 0
17 15 11 0
-2 17 0
-8 18 0
-11 18 0
8 11 -18 0
15 -18 -19 0
-15 18 -19 0
-15 -18 19 0
15 18 19 0
-3 19 0
8 20 0
11 20 0
-8 -11 -20 0
-15 20 -21 0
15 -20 -21 0
21 -20 -15 0
15 20 21 0
-4 -21 0
11 -22 -23 0
22 -11 -23 0
-11 -22 23 0
11 22 23 0
-1 -23 0
22 -11 -24 0
11 -22 -24 0
24 -22 -11 0
24 22 11 0
-2 24 0
-3 24 0
-4 24 0
25 -26 -27 0
26 -25 -27 0
-25 -26 27 0
26 25 27 0
-1 -27 0
26 -28 -29 0
28 -26 -29 0
29 -26 -28 0
29 26 28 0
-2 29 0
-25 30 0
-28 30 0
-31 30 0
-32 30 0
-33 30 0
-34 30 0
25 28 31 32 33 34 -30 0
26 -30 -35 0
-26 30 -35 0
-26 -30 35 0
26 30 35 0
-3 35 0
25 36 0
28 36 0
31 36 0
32 36 0
33 36 0
34 36 0
-37 0
-26 36 -38 0
26 -36 -38 0
38 -36 -26 0
26 36 38 0
-4 -38 0
28 -39 -40 0
39 -28 -40 0
-28 -39 40 0
28 39 40 0
-1 -40 0
39 -31 -41 0
31 -39 -41 0
41 -39 -31 0
41 39 31 0
-2 41 0
-28 42 0
-31 42 0
-32 42 0
-33 42 0
-34 42 0
28 31 32 33 34 -42 0
39 -42 -43 0
-39 42 -43 0
-39 -42 43 0
39 42 43 0
-3 43 0
28 44 0
31 44 0
32 44 0
33 44 0
34 44 0
-45 0
-39 44 -46 0
39 -44 -46 0
46 -44 -39 0
39 44 46 0
-4 -46 0
31 -47 -48 0
47 -31 -48 0
-31 -47 48 0
31 47 48 0
-1 -48 0
47 -32 -49 0
32 -47 -49 0
49 -47 -32 0
49 47 32 0
-2 49 0
-31 50 0
-32 50 0
-33 50 0
-34 50 0
31 32 33 34 -50 0
47 -50 -51 0
-47 50 -51 0
-47 -50 51 0
47 50 51 0
-3 51 0
31 52 0
32 52 0
33 52 0
34 52 0
-53 0
-47 52 -54 0
47 -52 -54 0
54 -52 -47 0
47 52 54 0
-4 -54 0
32 -55 -56 0
55 -32 -56 0
-32 -55 56 0
32 55 56 0
-1 -56 0
55 -33 -57 0
33 -55 -57 0
57 -55 -33 0
57 55 33 0
-2 57 0
55 -50 -58 0
50 -55 -58 0
-50 -55 58 0
55 50 58 0
-3 58 0
52 -55 -59 0
55 -52 -59 0
59 -52 -55 0
55 52 59 0
-4 -59 0
33 -60 -61 0
60 -33 -61 0
-33 -60 61 0
33 60 61 0
-1 -61 0
60 -34 -62 0
34 -60 -62 0
62 -60 -34 0
62 60 34 0
-2 62 0
60 -50 -63 0
50 -60 -63 0
-50 -60 63 0
60 50 63 0
-3 63 0
52 -60 -64 0
60 -52 -64 0
64 -52 -60 0
60 52 64 0
-4 -64 0
34 -65 -66 0
65 -34 -66 0
-34 -65 66 0
34 65 66 0
-1 -66 0
-31 65 -67 0
31 -65 -67 0
67 -65 -31 0
67 65 31 0
-2 67 0
65 -50 -68 0
50 -65 -68 0
-50 -65 68 0
65 50 68 0
-3 68 0
52 -65 -69 0
65 -52 -69 0
69 -52 -65 0
65 52 69 0
-4 -69 0
70 -71 -72 0
71 -70 -72 0
-70 -71 72 0
71 70 72 0
-1 -72 0
-33 71 -73 0
33 -71 -73 0
73 -71 -33 0
73 71 33 0
-2 73 0
-31 74 0
-32 74 0
-33 74 0
-34 74 0
-70 74 0
31 32 33 34 70 -74 0
71 -74 -75 0
-71 74 -75 0
-71 -74 75 0
71 74 75 0
-3 75 0
31 76 0
32 76 0
33 76 0
34 76 0
70 76 0
-77 0
-71 76 -78 0
71 -76 -78 0
78 -76 -71 0
71 76 78 0
-4 -78 0
79 -80 -81 0
80 -79 -81 0
-79 -80 81 0
80 79 81 0
-1 -81 0
80 -82 -83 0
82 -80 -83 0
83 -80 -82 0
83 80 82 0
-2 83 0
-79 84 0
-82 84 0
-85 84 0
-86 84 0
-87 84 0
-88 84 0
89 0
80 -84 -90 0
-80 84 -90 0
-80 -84 90 0
80 84 90 0
-3 90 0
79 91 0
82 91 0
85 91 0
86 91 0
87 91 0
88 91 0
-92 0
-80 91 -93 0
80 -91 -93 0
93 -91 -80 0
80 91 93 0
-4 -93 0
82 -94 -95 0
94 -82 -95 0
-82 -94 95 0
82 94 95 0
-1 -95 0
94 -85 -96 0
85 -94 -96 0
96 -94 -85 0
96 94 85 0
-2 96 0
-82 97 0
-85 97 0
-86 97 0
-87 97 0
-88 97 0
82 85 86 87 88 -97 0
94 -97 -98 0
-94 97 -98 0
-94 -97 98 0
94 97 98 0
-3 98 0
82 99 0
85 99 0
86 99 0
87 99 0
88 99 0
-100 0
-94 99 -101 0
94 -99 -101 0
101 -99 -94 0
94 99 101 0
-4 -101 0
85 -102 -103 0
102 -85 -103 0
-85 -102 103 0
85 102 103 0
-1 -103 0
102 -86 -104 0
86 -102 -104 0
104 -102 -86 0
104 102 86 0
-2 104 0
-85 105 0
-86 105 0
-87 105 0
-88 105 0
85 86 87 88 -105 0
102 -105 -106 0
-102 105 -106 0
-102 -105 106 0
102 105 106 0
-3 106 0
85 107 0
86 107 0
87 107 0
88 107 0
-108 0
-102 107 -109 0
102 -107 -109 0
109 -107 -102 0
102 107 109 0
-4 -109 0
86 -110 -111 0
110 -86 -111 0
-86 -110 111 0
86 110 111 0
-1 -111 0
110 -87 -112 0
87 -110 -112 0
112 -110 -87 0
112 110 87 0
-2 112 0
110 -105 -113 0
105 -110 -113 0
-105 -110 113 0
110 105 113 0
-3 113 0
107 -110 -114 0
110 -107 -114 0
114 -107 -110 0
110 107 114 0
-4 -114 0
87 -115 -116 0
115 -87 -116 0
-87 -115 116 0
87 115 116 0
-1 -116 0
115 -88 -117 0
88 -115 -117 0
117 -115 -88 0
117 115 88 0
-2 117 0
115 -105 -118 0
105 -115 -118 0
-105 -115 118 0
115 105 118 0
-3 118 0
107 -115 -119 0
115 -107 -119 0
119 -107 -115 0
115 107 119 0
-4 -119 0
88 -120 -121 0
120 -88 -121 0
-88 -120 121 0
88 120 121 0
-1 -121 0
-85 120 -122 0
85 -120 -122 0
122 -120 -85 0
122 120 85 0
-2 122 0
120 -105 -123 0
105 -120 -123 0
-105 -120 123 0
120 105 123 0
-3 123 0
107 -120 -124 0
120 -107 -124 0
124 -107 -120 0
120 107 124 0
-4 -124 0
125 -126 -127 0
126 -125 -127 0
-125 -126 127 0
126 125 127 0
-1 -127 0
-70 126 -128 0
70 -126 -128 0
128 -126 -70 0
128 126 70 0
-2 128 0
-31 129 0
-32 129 0
-33 129 0
-34 129 0
-70 129 0
-125 129 0
31 32 33 34 70 125 -129 0
126 -129 -130 0
-126 129 -130 0
-126 -129 130 0
126 129 130 0
-3 130 0
31 131 0
32 131 0
33 131 0
34 131 0
70 131 0
125 131 0
-132 0
-126 131 -133 0
126 -131 -133 0
133 -131 -126 0
126 131 133 0
-4 -133 0
134 -135 -136 0
135 -134 -136 0
-134 -135 136 0
135 134 136 0
-1 -136 0
135 -137 -138 0
137 -135 -138 0
138 -135 -137 0
138 135 137 0
-2 138 0
-85 139 0
-86 139 0
-87 139 0
-88 139 0
-134 139 0
-137 139 0
-140 139 0
141 0
135 -139 -142 0
-135 139 -142 0
-135 -139 142 0
135 139 142 0
-3 142 0
85 143 0
86 143 0
87 143 0
88 143 0
134 143 0
137 143 0
140 143 0
-144 0
-135 143 -145 0
135 -143 -145 0
145 -143 -135 0
135 143 145 0
-4 -145 0
137 -146 -147 0
146 -137 -147 0
-137 -146 147 0
137 146 147 0
-1 -147 0
146 -140 -148 0
140 -146 -148 0
148 -146 -140 0
148 146 140 0
-2 148 0
-85 149 0
-86 149 0
-87 149 0
-88 149 0
-137 149 0
-140 149 0
150 0
146 -149 -151 0
-146 149 -151 0
-146 -149 151 0
146 149 151 0
-3 151 0
85 152 0
86 152 0
87 152 0
88 152 0
137 152 0
140 152 0
-153 0
-146 152 -154 0
146 -152 -154 0
154 -152 -146 0
146 152 154 0
-4 -154 0
140 -155 -156 0
155 -140 -156 0
-140 -155 156 0
140 155 156 0
-1 -156 0
-86 155 -157 0
86 -155 -157 0
157 -155 -86 0
157 155 86 0
-2 157 0
-85 158 0
-86 158 0
-87 158 0
-88 158 0
-140 158 0
85 86 87 88 140 -158 0
155 -158 -159 0
-155 158 -159 0
-155 -158 159 0
155 158 159 0
-3 159 0
85 160 0
86 160 0
87 160 0
88 160 0
140 160 0
-161 0
-155 160 -162 0
155 -160 -162 0
162 -160 -155 0
155 160 162 0
-4 -162 0
163 -164 -165 0
164 -163 -165 0
-163 -164 165 0
164 163 165 0
-1 -165 0
-34 164 -166 0
34 -164 -166 0
166 -164 -34 0
166 164 34 0
-2 166 0
-31 167 0
-32 167 0
-33 167 0
-34 167 0
-163 167 0
31 32 33 34 163 -167 0
164 -167 -168 0
-164 167 -168 0
-164 -167 168 0
164 167 168 0
-3 168 0
31 169 0
32 169 0
33 169 0
34 169 0
163 169 0
-170 0
-164 169 -171 0
164 -169 -171 0
171 -169 -164 0
164 169 171 0
-4 -171 0
172 -173 -174 0
173 -172 -174 0
-172 -173 174 0
173 172 174 0
-1 -174 0
173 -175 -176 0
175 -173 -176 0
176 -173 -175 0
176 173 175 0
-2 176 0
-11 177 0
-172 177 0
-175 177 0
11 172 175 -177 0
173 -177 -178 0
-173 177 -178 0
-173 -177 178 0
173 177 178 0
-3 178 0
11 179 0
172 179 0
175 179 0
-11 -172 -175 -179 0
-173 179 -180 0
173 -179 -180 0
180 -179 -173 0
173 179 180 0
-4 -180 0
175 -181 -182 0
181 -175 -182 0
-175 -181 182 0
175 181 182 0
-1 -182 0
-11 181 -183 0
11 -181 -183 0
183 -181 -11 0
183 181 11 0
-2 183 0
-11 184 0
-175 184 0
11 175 -184 0
181 -184 -185 0
-181 184 -185 0
-181 -184 185 0
181 184 185 0
-3 185 0
11 186 0
175 186 0
-11 -175 -186 0
-181 186 -187 0
181 -186 -187 0
187 -186 -181 0
181 186 187 0
-4 -187 0
188 -189 -190 0
189 -188 -190 0
-188 -189 190 0
189 188 190 0
-1 -190 0
189 -191 -192 0
191 -189 -192 0
192 -189 -191 0
192 189 191 0
-2 192 0
-188 193 0
-191 193 0
-194 193 0
-195 193 0
-196 193 0
-197 193 0
198 0
189 -193 -199 0
-189 193 -199 0
-189 -193 199 0
189 193 199 0
-3 199 0
188 200 0
191 200 0
194 200 0
195 200 0
196 200 0
197 200 0
-201 0
-189 200 -202 0
189 -200 -202 0
202 -200 -189 0
189 200 202 0
-4 -202 0
191 -203 -204 0
203 -191 -204 0
-191 -203 204 0
191 203 204 0
-1 -204 0
203 -194 -205 0
194 -203 -205 0
205 -203 -194 0
205 203 194 0
-2 205 0
-191 206 0
-194 206 0
-195 206 0
-196 206 0
-197 206 0
191 194 195 196 197 -206 0
203 -206 -207 0
-203 206 -207 0
-203 -206 207 0
203 206 207 0
-3 207 0
191 208 0
194 208 0
195 208 0
196 208 0
197 208 0
-209 0
-203 208 -210 0
203 -208 -210 0
210 -208 -203 0
203 208 210 0
-4 -210 0
194 -211 -212 0
211 -194 -212 0
-194 -211 212 0
194 211 212 0
-1 -212 0
211 -195 -213 0
195 -211 -213 0
213 -211 -195 0
213 211 195 0
-2 213 0
-194 214 0
-195 214 0
-196 214 0
-197 214 0
194 195 196 197 -214 0
211 -214 -215 0
-211 214 -215 0
-211 -214 215 0
211 214 215 0
-3 215 0
194 216 0
195 216 0
196 216 0
197 216 0
-217 0
-211 216 -218 0
211 -216 -218 0
218 -216 -211 0
211 216 218 0
-4 -218 0
195 -219 -220 0
219 -195 -220 0
-195 -219 220 0
195 219 220 0
-1 -220 0
219 -196 -221 0
196 -219 -221 0
221 -219 -196 0
221 219 196 0
-2 221 0
219 -214 -222 0
214 -219 -222 0
-214 -219 222 0
219 214 222 0
-3 222 0
216 -219 -223 0
219 -216 -223 0
223 -216 -219 0
219 216 223 0
-4 -223 0
196 -224 -225 0
224 -196 -225 0
-196 -224 225 0
196 224 225 0
-1 -225 0
224 -197 -226 0
197 -224 -226 0
226 -224 -197 0
226 224 197 0
-2 226 0
224 -214 -227 0
214 -224 -227 0
-214 -224 227 0
224 214 227 0
-3 227 0
216 -224 -228 0
224 -216 -228 0
228 -216 -224 0
224 216 228 0
-4 -228 0
197 -229 -230 0
229 -197 -230 0
-197 -229 230 0
197 229 230 0
-1 -230 0
-194 229 -231 0
194 -229 -231 0
231 -229 -194 0
231 229 194 0
-2 231 0
229 -214 -232 0
214 -229 -232 0
-214 -229 232 0
229 214 232 0
-3 232 0
216 -229 -233 0
229 -216 -233 0
233 -216 -229 0
229 216 233 0
-4 -233 0
234 -235 -236 0
235 -234 -236 0
-234 -235 236 0
235 234 236 0
-1 -236 0
235 -237 -238 0
237 -235 -238 0
238 -235 -237 0
238 235 237 0
-2 238 0
-234 239 0
-237 239 0
-240 239 0
-241 239 0
-242 239 0
-243 239 0
244 0
235 -239 -245 0
-235 239 -245 0
-235 -239 245 0
235 239 245 0
-3 245 0
234 246 0
237 246 0
240 246 0
241 246 0
242 246 0
243 246 0
-247 0
-235 246 -248 0
235 -246 -248 0
248 -246 -235 0
235 246 248 0
-4 -248 0
237 -249 -250 0
249 -237 -250 0
-237 -249 250 0
237 249 250 0
-1 -250 0
249 -240 -251 0
240 -249 -251 0
251 -249 -240 0
251 249 240 0
-2 251 0
-237 252 0
-240 252 0
-241 252 0
-242 252 0
-243 252 0
237 240 241 242 243 -252 0
249 -252 -253 0
-249 252 -253 0
-249 -252 253 0
249 252 253 0
-3 253 0
237 254 0
240 254 0
241 254 0
242 254 0
243 254 0
-255 0
-249 254 -256 0
249 -254 -256 0
256 -254 -249 0
249 254 256 0
-4 -256 0
240 -257 -258 0
257 -240 -258 0
-240 -257 258 0
240 257 258 0
-1 -258 0
257 -241 -259 0
241 -257 -259 0
259 -257 -241 0
259 257 241 0
-2 259 0
-240 260 0
-241 260 0
-242 260 0
-243 260 0
240 241 242 243 -260 0
257 -260 -261 0
-257 260 -261 0
-257 -260 261 0
257 260 261 0
-3 261 0
240 262 0
241 262 0
242 262 0
243 262 0
-263 0
-257 262 -264 0
257 -262 -264 0
264 -262 -257 0
257 262 264 0
-4 -264 0
241 -265 -266 0
265 -241 -266 0
-241 -265 266 0
241 265 266 0
-1 -266 0
265 -242 -267 0
242 -265 -267 0
267 -265 -242 0
267 265 242 0
-2 267 0
-241 268 0
-242 268 0
-243 268 0
241 242 243 -268 0
265 -268 -269 0
-265 268 -269 0
-265 -268 269 0
265 268 269 0
-3 269 0
241 270 0
242 270 0
243 270 0
-241 -242 -243 -270 0
-265 270 -271 0
265 -270 -271 0
271 -270 -265 0
265 270 271 0
-4 -271 0
242 -272 -273 0
272 -242 -273 0
-242 -272 273 0
242 272 273 0
-1 -273 0
272 -243 -274 0
243 -272 -274 0
274 -272 -243 0
274 272 243 0
-2 274 0
-242 275 0
-243 275 0
242 243 -275 0
272 -275 -276 0
-272 275 -276 0
-272 -275 276 0
272 275 276 0
-3 276 0
242 277 0
243 277 0
-242 -243 -277 0
-272 277 -278 0
272 -277 -278 0
278 -277 -272 0
272 277 278 0
-4 -278 0
243 -279 -280 0
279 -243 -280 0
-243 -279 280 0
243 279 280 0
-1 -280 0
-242 279 -281 0
242 -279 -281 0
281 -279 -242 0
281 279 242 0
-2 281 0
279 -275 -282 0
275 -279 -282 0
-275 -279 282 0
279 275 282 0
-3 282 0
277 -279 -283 0
279 -277 -283 0
283 -277 -279 0
279 277 283 0
-4 -283 0
284 -285 -286 0
285 -284 -286 0
-284 -285 286 0
285 284 286 0
-1 -286 0
285 -287 -288 0
287 -285 -288 0
288 -285 -287 0
288 285 287 0
-2 288 0
-284 289 0
-287 289 0
-290 289 0
-291 289 0
-292 289 0
-293 289 0
294 0
285 -289 -295 0
-285 289 -295 0
-285 -289 295 0
285 289 295 0
-3 295 0
284 296 0
287 296 0
290 296 0
291 296 0
292 296 0
293 296 0
-297 0
-285 296 -298 0
285 -296 -298 0
298 -296 -285 0
285 296 298 0
-4 -298 0
287 -299 -300 0
299 -287 -300 0
-287 -299 300 0
287 299 300 0
-1 -300 0
299 -290 -301 0
290 -299 -301 0
301 -299 -290 0
301 299 290 0
-2 301 0
-287 302 0
-290 302 0
-291 302 0
-292 302 0
-293 302 0
287 290 291 292 293 -302 0
299 -302 -303 0
-299 302 -303 0
-299 -302 303 0
299 302 303 0
-3 303 0
287 304 0
290 304 0
291 304 0
292 304 0
293 304 0
-305 0
-299 304 -306 0
299 -304 -306 0
306 -304 -299 0
299 304 306 0
-4 -306 0
290 -307 -308 0
307 -290 -308 0
-290 -307 308 0
290 307 308 0
-1 -308 0
307 -291 -309 0
291 -307 -309 0
309 -307 -291 0
309 307 291 0
-2 309 0
-290 310 0
-291 310 0
-292 310 0
-293 310 0
290 291 292 293 -310 0
307 -310 -311 0
-307 310 -311 0
-307 -310 311 0
307 310 311 0
-3 311 0
290 312 0
291 312 0
292 312 0
293 312 0
-313 0
-307 312 -314 0
307 -312 -314 0
314 -312 -307 0
307 312 314 0
-4 -314 0
291 -315 -316 0
315 -291 -316 0
-291 -315 316 0
291 315 316 0
-1 -316 0
315 -292 -317 0
292 -315 -317 0
317 -315 -292 0
317 315 292 0
-2 317 0
-291 318 0
-292 318 0
-293 318 0
291 292 293 -318 0
315 -318 -319 0
-315 318 -319 0
-315 -318 319 0
315 318 319 0
-3 319 0
291 320 0
292 320 0
293 320 0
-291 -292 -293 -320 0
-315 320 -321 0
315 -320 -321 0
321 -320 -315 0
315 320 321 0
-4 -321 0
292 -322 -323 0
322 -292 -323 0
-292 -322 323 0
292 322 323 0
-1 -323 0
322 -293 -324 0
293 -322 -324 0
324 -322 -293 0
324 322 293 0
-2 324 0
322 -318 -325 0
318 -322 -325 0
-318 -322 325 0
322 318 325 0
-3 325 0
320 -322 -326 0
322 -320 -326 0
326 -320 -322 0
322 320 326 0
-4 -326 0
293 -327 -328 0
327 -293 -328 0
-293 -327 328 0
293 327 328 0
-1 -328 0
-291 327 -329 0
291 -327 -329 0
329 -327 -291 0
329 327 291 0
-2 329 0
327 -318 -330 0
318 -327 -330 0
-318 -327 330 0
327 318 330 0
-3 330 0
320 -327 -331 0
327 -320 -331 0
331 -320 -327 0
327 320 331 0
-4 -331 0
332 -333 -334 0
333 -332 -334 0
-332 -333 334 0
333 332 334 0
-1 -334 0
333 -335 -336 0
335 -333 -336 0
336 -333 -335 0
336 333 335 0
-2 336 0
-332 337 0
-335 337 0
-338 337 0
-339 337 0
-340 337 0
-341 337 0
-342 337 0
-343 337 0
344 0
333 -337 -345 0
-333 337 -345 0
-333 -337 345 0
333 337 345 0
-3 345 0
332 346 0
335 346 0
338 346 0
339 346 0
340 346 0
341 346 0
342 346 0
343 346 0
-347 0
-333 346 -348 0
333 -346 -348 0
348 -346 -333 0
333 346 348 0
-4 -348 0
335 -349 -350 0
349 -335 -350 0
-335 -349 350 0
335 349 350 0
-1 -350 0
349 -338 -351 0
338 -349 -351 0
351 -349 -338 0
351 349 338 0
-2 351 0
-335 352 0
-338 352 0
-339 352 0
-340 352 0
-341 352 0
-342 352 0
-343 352 0
353 0
349 -352 -354 0
-349 352 -354 0
-349 -352 354 0
349 352 354 0
-3 354 0
335 355 0
338 355 0
339 355 0
340 355 0
341 355 0
342 355 0
343 355 0
-356 0
-349 355 -357 0
349 -355 -357 0
357 -355 -349 0
349 355 357 0
-4 -357 0
338 -358 -359 0
358 -338 -359 0
-338 -358 359 0
338 358 359 0
-1 -359 0
358 -339 -360 0
339 -358 -360 0
360 -358 -339 0
360 358 339 0
-2 360 0
-338 361 0
-339 361 0
-340 361 0
-341 361 0
-342 361 0
-343 361 0
362 0
358 -361 -363 0
-358 361 -363 0
-358 -361 363 0
358 361 363 0
-3 363 0
338 364 0
339 364 0
340 364 0
341 364 0
342 364 0
343 364 0
-365 0
-358 364 -366 0
358 -364 -366 0
366 -364 -358 0
358 364 366 0
-4 -366 0
339 -367 -368 0
367 -339 -368 0
-339 -367 368 0
339 367 368 0
-1 -368 0
367 -340 -369 0
340 -367 -369 0
369 -367 -340 0
369 367 340 0
-2 369 0
-339 370 0
-340 370 0
-341 370 0
-342 370 0
-343 370 0
339 340 341 342 343 -370 0
367 -370 -371 0
-367 370 -371 0
-367 -370 371 0
367 370 371 0
-3 371 0
339 372 0
340 372 0
341 372 0
342 372 0
343 372 0
-373 0
-367 372 -374 0
367 -372 -374 0
374 -372 -367 0
367 372 374 0
-4 -374 0
340 -375 -376 0
375 -340 -376 0
-340 -375 376 0
340 375 376 0
-1 -376 0
375 -341 -377 0
341 -375 -377 0
377 -375 -341 0
377 375 341 0
-2 377 0
-340 378 0
-341 378 0
-342 378 0
-343 378 0
340 341 342 343 -378 0
375 -378 -379 0
-375 378 -379 0
-375 -378 379 0
375 378 379 0
-3 379 0
340 380 0
341 380 0
342 380 0
343 380 0
-381 0
-375 380 -382 0
375 -380 -382 0
382 -380 -375 0
375 380 382 0
-4 -382 0
341 -383 -384 0
383 -341 -384 0
-341 -383 384 0
341 383 384 0
-1 -384 0
383 -342 -385 0
342 -383 -385 0
385 -383 -342 0
385 383 342 0
-2 385 0
383 -378 -386 0
378 -383 -386 0
-378 -383 386 0
383 378 386 0
-3 386 0
380 -383 -387 0
383 -380 -387 0
387 -380 -383 0
383 380 387 0
-4 -387 0
342 -388 -389 0
388 -342 -389 0
-342 -388 389 0
342 388 389 0
-1 -389 0
388 -343 -390 0
343 -388 -390 0
390 -388 -343 0
390 388 343 0
-2 390 0
388 -378 -391 0
378 -388 -391 0
-378 -388 391 0
388 378 391 0
-3 391 0
380 -388 -392 0
388 -380 -392 0
392 -380 -388 0
388 380 392 0
-4 -392 0
343 -393 -394 0
393 -343 -394 0
-343 -393 394 0
343 393 394 0
-1 -394 0
-340 393 -395 0
340 -393 -395 0
395 -393 -340 0
395 393 340 0
-2 395 0
393 -378 -396 0
378 -393 -396 0
-378 -393 396 0
393 378 396 0
-3 396 0
380 -393 -397 0
393 -380 -397 0
397 -380 -393 0
393 380 397 0
-4 -397 0
398 -399 -400 0
399 -398 -400 0
-398 -399 400 0
399 398 400 0
-1 -400 0
399 -401 -402 0
401 -399 -402 0
402 -399 -401 0
402 399 401 0
-2 402 0
-242 403 0
-243 403 0
-398 403 0
-401 403 0
242 243 398 401 -403 0
399 -403 -404 0
-399 403 -404 0
-399 -403 404 0
399 403 404 0
-3 404 0
242 405 0
243 405 0
398 405 0
401 405 0
-406 0
-399 405 -407 0
399 -405 -407 0
407 -405 -399 0
399 405 407 0
-4 -407 0
401 -408 -409 0
408 -401 -409 0
-401 -408 409 0
401 408 409 0
-1 -409 0
-243 408 -410 0
243 -408 -410 0
410 -408 -243 0
410 408 243 0
-2 410 0
-242 411 0
-243 411 0
-401 411 0
242 243 401 -411 0
408 -411 -412 0
-408 411 -412 0
-408 -411 412 0
408 411 412 0
-3 412 0
242 413 0
243 413 0
401 413 0
-242 -243 -401 -413 0
-408 413 -414 0
408 -413 -414 0
414 -413 -408 0
408 413 414 0
-4 -414 0
415 -416 -417 0
416 -415 -417 0
-415 -416 417 0
416 415 417 0
-1 -417 0
416 -418 -419 0
418 -416 -419 0
419 -416 -418 0
419 416 418 0
-2 419 0
-415 420 0
-418 420 0
-421 420 0
-422 420 0
-423 420 0
415 418 421 422 423 -420 0
416 -420 -424 0
-416 420 -424 0
-416 -420 424 0
416 420 424 0
-3 424 0
415 425 0
418 425 0
421 425 0
422 425 0
423 425 0
-426 0
-416 425 -427 0
416 -425 -427 0
427 -425 -416 0
416 425 427 0
-4 -427 0
418 -428 -429 0
428 -418 -429 0
-418 -428 429 0
418 428 429 0
-1 -429 0
428 -421 -430 0
421 -428 -430 0
430 -428 -421 0
430 428 421 0
-2 430 0
-418 431 0
-421 431 0
-422 431 0
-423 431 0
418 421 422 423 -431 0
428 -431 -432 0
-428 431 -432 0
-428 -431 432 0
428 431 432 0
-3 432 0
418 433 0
421 433 0
422 433 0
423 433 0
-434 0
-428 433 -435 0
428 -433 -435 0
435 -433 -428 0
428 433 435 0
-4 -435 0
421 -436 -437 0
436 -421 -437 0
-421 -436 437 0
421 436 437 0
-1 -437 0
436 -422 -438 0
422 -436 -438 0
438 -436 -422 0
438 436 422 0
-2 438 0
-421 439 0
-422 439 0
-423 439 0
421 422 423 -439 0
436 -439 -440 0
-436 439 -440 0
-436 -439 440 0
436 439 440 0
-3 440 0
421 441 0
422 441 0
423 441 0
-421 -422 -423 -441 0
-436 441 -442 0
436 -441 -442 0
442 -441 -436 0
436 441 442 0
-4 -442 0
422 -443 -444 0
443 -422 -444 0
-422 -443 444 0
422 443 444 0
-1 -444 0
443 -423 -445 0
423 -443 -445 0
445 -443 -423 0
445 443 423 0
-2 445 0
443 -439 -446 0
439 -443 -446 0
-439 -443 446 0
443 439 446 0
-3 446 0
441 -443 -447 0
443 -441 -447 0
447 -441 -443 0
443 441 447 0
-4 -447 0
423 -448 -449 0
448 -423 -449 0
-423 -448 449 0
423 448 449 0
-1 -449 0
-421 448 -450 0
421 -448 -450 0
450 -448 -421 0
450 448 421 0
-2 450 0
448 -439 -451 0
439 -448 -451 0
-439 -448 451 0
448 439 451 0
-3 451 0
441 -448 -452 0
448 -441 -452 0
452 -441 -448 0
448 441 452 0
-4 -452 0
453 -454 -455 0
454 -453 -455 0
-453 -454 455 0
454 453 455 0
-1 -455 0
454 -456 -457 0
456 -454 -457 0
457 -454 -456 0
457 454 456 0
-2 457 0
-453 458 0
-456 458 0
-459 458 0
-460 458 0
-461 458 0
453 456 459 460 461 -458 0
454 -458 -462 0
-454 458 -462 0
-454 -458 462 0
454 458 462 0
-3 462 0
453 463 0
456 463 0
459 463 0
460 463 0
461 463 0
-464 0
-454 463 -465 0
454 -463 -465 0
465 -463 -454 0
454 463 465 0
-4 -465 0
456 -466 -467 0
466 -456 -467 0
-456 -466 467 0
456 466 467 0
-1 -467 0
466 -459 -468 0
459 -466 -468 0
468 -466 -459 0
468 466 459 0
-2 468 0
-456 469 0
-459 469 0
-460 469 0
-461 469 0
456 459 460 461 -469 0
466 -469 -470 0
-466 469 -470 0
-466 -469 470 0
466 469 470 0
-3 470 0
456 471 0
459 471 0
460 471 0
461 471 0
-472 0
-466 471 -473 0
466 -471 -473 0
473 -471 -466 0
466 471 473 0
-4 -473 0
459 -474 -475 0
474 -459 -475 0
-459 -474 475 0
459 474 475 0
-1 -475 0
474 -460 -476 0
460 -474 -476 0
476 -474 -460 0
476 474 460 0
-2 476 0
-459 477 0
-460 477 0
-461 477 0
459 460 461 -477 0
474 -477 -478 0
-474 477 -478 0
-474 -477 478 0
474 477 478 0
-3 478 0
459 479 0
460 479 0
461 479 0
-459 -460 -461 -479 0
-474 479 -480 0
474 -479 -480 0
480 -479 -474 0
474 479 480 0
-4 -480 0
460 -481 -482 0
481 -460 -482 0
-460 -481 482 0
460 481 482 0
-1 -482 0
481 -461 -483 0
461 -481 -483 0
483 -481 -461 0
483 481 461 0
-2 483 0
-460 484 0
-461 484 0
460 461 -484 0
481 -484 -485 0
-481 484 -485 0
-481 -484 485 0
481 484 485 0
-3 485 0
460 486 0
461 486 0
-460 -461 -486 0
-481 486 -487 0
481 -486 -487 0
487 -486 -481 0
481 486 487 0
-4 -487 0
461 -488 -489 0
488 -461 -489 0
-461 -488 489 0
461 488 489 0
-1 -489 0
-460 488 -490 0
460 -488 -490 0
490 -488 -460 0
490 488 460 0
-2 490 0
488 -484 -491 0
484 -488 -491 0
-484 -488 491 0
488 484 491 0
-3 491 0
486 -488 -492 0
488 -486 -492 0
492 -486 -488 0
488 486 492 0
-4 -492 0
493 -494 -495 0
494 -493 -495 0
-493 -494 495 0
494 493 495 0
-1 -495 0
494 -496 -497 0
496 -494 -497 0
497 -494 -496 0
497 494 496 0
-2 497 0
-493 498 0
-496 498 0
-499 498 0
-500 498 0
-501 498 0
493 496 499 500 501 -498 0
494 -498 -502 0
-494 498 -502 0
-494 -498 502 0
494 498 502 0
-3 502 0
493 503 0
496 503 0
499 503 0
500 503 0
501 503 0
-504 0
-494 503 -505 0
494 -503 -505 0
505 -503 -494 0
494 503 505 0
-4 -505 0
496 -506 -507 0
506 -496 -507 0
-496 -506 507 0
496 506 507 0
-1 -507 0
506 -499 -508 0
499 -506 -508 0
508 -506 -499 0
508 506 499 0
-2 508 0
-496 509 0
-499 509 0
-500 509 0
-501 509 0
496 499 500 501 -509 0
506 -509 -510 0
-506 509 -510 0
-506 -509 510 0
506 509 510 0
-3 510 0
496 511 0
499 511 0
500 511 0
501 511 0
-512 0
-506 511 -513 0
506 -511 -513 0
513 -511 -506 0
506 511 513 0
-4 -513 0
499 -514 -515 0
514 -499 -515 0
-499 -514 515 0
499 514 515 0
-1 -515 0
514 -500 -516 0
500 -514 -516 0
516 -514 -500 0
516 514 500 0
-2 516 0
-499 517 0
-500 517 0
-501 517 0
499 500 501 -517 0
514 -517 -518 0
-514 517 -518 0
-514 -517 518 0
514 517 518 0
-3 518 0
499 519 0
500 519 0
501 519 0
-499 -500 -501 -519 0
-514 519 -520 0
514 -519 -520 0
520 -519 -514 0
514 519 520 0
-4 -520 0
500 -521 -522 0
521 -500 -522 0
-500 -521 522 0
500 521 522 0
-1 -522 0
521 -501 -523 0
501 -521 -523 0
523 -521 -501 0
523 521 501 0
-2 523 0
521 -517 -524 0
517 -521 -524 0
-517 -521 524 0
521 517 524 0
-3 524 0
519 -521 -525 0
521 -519 -525 0
525 -519 -521 0
521 519 525 0
-4 -525 0
501 -526 -527 0
526 -501 -527 0
-501 -526 527 0
501 526 527 0
-1 -527 0
-499 526 -528 0
499 -526 -528 0
528 -526 -499 0
528 526 499 0
-2 528 0
526 -517 -529 0
517 -526 -529 0
-517 -526 529 0
526 517 529 0
-3 529 0
519 -526 -530 0
526 -519 -530 0
530 -519 -526 0
526 519 530 0
-4 -530 0
531 -532 -533 0
532 -531 -533 0
-531 -532 533 0
532 531 533 0
-1 -533 0
532 -534 -535 0
534 -532 -535 0
535 -532 -534 0
535 532 534 0
-2 535 0
-11 536 0
-175 536 0
-531 536 0
-534 536 0
11 175 531 534 -536 0
532 -536 -537 0
-532 536 -537 0
-532 -536 537 0
532 536 537 0
-3 537 0
11 538 0
175 538 0
531 538 0
534 538 0
-539 0
-532 538 -540 0
532 -538 -540 0
540 -538 -532 0
532 538 540 0
-4 -540 0
534 -541 -542 0
541 -534 -542 0
-534 -541 542 0
534 541 542 0
-1 -542 0
-175 541 -543 0
175 -541 -543 0
543 -541 -175 0
543 541 175 0
-2 543 0
-11 544 0
-175 544 0
-534 544 0
11 175 534 -544 0
541 -544 -545 0
-541 544 -545 0
-541 -544 545 0
541 544 545 0
-3 545 0
11 546 0
175 546 0
534 546 0
-11 -175 -534 -546 0
-541 546 -547 0
541 -546 -547 0
547 -546 -541 0
541 546 547 0
-4 -547 0
548 -549 -550 0
549 -548 -550 0
-548 -549 550 0
549 548 550 0
-1 -550 0
549 -551 -552 0
551 -549 -552 0
552 -549 -551 0
552 549 551 0
-2 552 0
-548 553 0
-551 553 0
-554 553 0
-555 553 0
-556 553 0
548 551 554 555 556 -553 0
549 -553 -557 0
-549 553 -557 0
-549 -553 557 0
549 553 557 0
-3 557 0
548 558 0
551 558 0
554 558 0
555 558 0
556 558 0
-559 0
-549 558 -560 0
549 -558 -560 0
560 -558 -549 0
549 558 560 0
-4 -560 0
551 -561 -562 0
561 -551 -562 0
-551 -561 562 0
551 561 562 0
-1 -562 0
561 -554 -563 0
554 -561 -563 0
563 -561 -554 0
563 561 554 0
-2 563 0
-551 564 0
-554 564 0
-555 564 0
-556 564 0
551 554 555 556 -564 0
561 -564 -565 0
-561 564 -565 0
-561 -564 565 0
561 564 565 0
-3 565 0
551 566 0
554 566 0
555 566 0
556 566 0
-567 0
-561 566 -568 0
561 -566 -568 0
568 -566 -561 0
561 566 568 0
-4 -568 0
554 -569 -570 0
569 -554 -570 0
-554 -569 570 0
554 569 570 0
-1 -570 0
569 -555 -571 0
555 -569 -571 0
571 -569 -555 0
571 569 555 0
-2 571 0
-554 572 0
-555 572 0
-556 572 0
554 555 556 -572 0
569 -572 -573 0
-569 572 -573 0
-569 -572 573 0
569 572 573 0
-3 573 0
554 574 0
555 574 0
556 574 0
-554 -555 -556 -574 0
-569 574 -575 0
569 -574 -575 0
575 -574 -569 0
569 574 575 0
-4 -575 0
555 -576 -577 0
576 -555 -577 0
-555 -576 577 0
555 576 577 0
-1 -577 0
576 -556 -578 0
556 -576 -578 0
578 -576 -556 0
578 576 556 0
-2 578 0
576 -572 -579 0
572 -576 -579 0
-572 -576 579 0
576 572 579 0
-3 579 0
574 -576 -580 0
576 -574 -580 0
580 -574 -576 0
576 574 580 0
-4 -580 0
556 -581 -582 0
581 -556 -582 0
-556 -581 582 0
556 581 582 0
-1 -582 0
-554 581 -583 0
554 -581 -583 0
583 -581 -554 0
583 581 554 0
-2 583 0
581 -572 -584 0
572 -581 -584 0
-572 -581 584 0
581 572 584 0
-3 584 0
574 -581 -585 0
581 -574 -585 0
585 -574 -581 0
581 574 585 0
-4 -585 0
586 -587 0
588 586 0
587 -588 -586 0
5 -586 0
-5 586 0
589 -590 0
591 589 0
590 -591 -589 0
8 -589 0
-8 589 0
592 -593 0
594 592 0
593 -594 -592 0
11 -592 0
-11 592 0
595 -596 0
597 595 0
596 -597 -595 0
25 -595 0
-25 595 0
598 -599 0
600 598 0
599 -600 -598 0
28 -598 0
-28 598 0
601 -602 0
603 601 0
602 -603 -601 0
31 -601 0
-31 601 0
604 -605 0
606 604 0
605 -606 -604 0
32 -604 0
-32 604 0
607 -608 0
609 607 0
608 -609 -607 0
33 -607 0
-33 607 0
610 -611 0
612 610 0
611 -612 -610 0
34 -610 0
-34 610 0
613 -614 0
615 613 0
614 -615 -613 0
70 -613 0
-70 613 0
616 -617 0
618 616 0
617 -618 -616 0
79 -616 0
-79 616 0
619 -620 0
621 619 0
620 -621 -619 0
82 -619 0
-82 619 0
622 -623 0
624 622 0
623 -624 -622 0
85 -622 0
-85 622 0
625 -626 0
627 625 0
626 -627 -625 0
86 -625 0
-86 625 0
628 -629 0
630 628 0
629 -630 -628 0
87 -628 0
-87 628 0
631 -632 0
633 631 0
632 -633 -631 0
88 -631 0
-88 631 0
634 -635 0
636 634 0
635 -636 -634 0
125 -634 0
-125 634 0
637 -638 0
639 637 0
638 -639 -637 0
134 -637 0
-134 637 0
640 -641 0
642 640 0
641 -642 -640 0
137 -640 0
-137 640 0
643 -644 0
645 643 0
644 -645 -643 0
140 -643 0
-140 643 0
646 -647 0
648 646 0
647 -648 -646 0
163 -646 0
-163 646 0
649 -650 0
651 649 0
650 -651 -649 0
172 -649 0
-172 649 0
652 -653 0
654 652 0
653 -654 -652 0
175 -652 0
-175 652 0
655 -656 0
657 655 0
656 -657 -655 0
188 -655 0
-188 655 0
658 -659 0
660 658 0
659 -660 -658 0
191 -658 0
-191 658 0
661 -662 0
663 661 0
662 -663 -661 0
194 -661 0
-194 661 0
664 -665 0
666 664 0
665 -666 -664 0
195 -664 0
-195 664 0
667 -668 0
669 667 0
668 -669 -667 0
196 -667 0
-196 667 0
670 -671 0
672 670 0
671 -672 -670 0
197 -670 0
-197 670 0
673 -674 0
675 673 0
674 -675 -673 0
234 -673 0
-234 673 0
676 -677 0
678 676 0
677 -678 -676 0
237 -676 0
-237 676 0
679 -680 0
681 679 0
680 -681 -679 0
240 -679 0
-240 679 0
682 -683 0
684 682 0
683 -684 -682 0
241 -682 0
-241 682 0
685 -686 0
687 685 0
686 -687 -685 0
242 -685 0
-242 685 0
688 -689 0
690 688 0
689 -690 -688 0
243 -688 0
-243 688 0
691 -692 0
693 691 0
692 -693 -691 0
284 -691 0
-284 691 0
694 -695 0
696 694 0
695 -696 -694 0
287 -694 0
-287 694 0
697 -698 0
699 697 0
698 -699 -697 0
290 -697 0
-290 697 0
700 -701 0
702 700 0
701 -702 -700 0
291 -700 0
-291 700 0
703 -704 0
705 703 0
704 -705 -703 0
292 -703 0
-292 703 0
706 -707 0
708 706 0
707 -708 -706 0
293 -706 0
-293 706 0
709 -710 0
711 709 0
710 -711 -709 0
332 -709 0
-332 709 0
712 -713 0
714 712 0
713 -714 -712 0
335 -712 0
-335 712 0
715 -716 0
717 715 0
716 -717 -715 0
338 -715 0
-338 715 0
718 -719 0
720 718 0
719 -720 -718 0
339 -718 0
-339 718 0
721 -722 0
723 721 0
722 -723 -721 0
340 -721 0
-340 721 0
724 -725 0
726 724 0
725 -726 -724 0
341 -724 0
-341 724 0
727 -728 0
729 727 0
728 -729 -727 0
342 -727 0
-342 727 0
730 -731 0
732 730 0
731 -732 -730 0
343 -730 0
-343 730 0
733 -734 0
735 733 0
734 -735 -733 0
398 -733 0
-398 733 0
736 -737 0
738 736 0
737 -738 -736 0
401 -736 0
-401 736 0
739 -740 0
741 739 0
740 -741 -739 0
415 -739 0
-415 739 0
742 -743 0
744 742 0
743 -744 -742 0
418 -742 0
-418 742 0
745 -746 0
747 745 0
746 -747 -745 0
421 -745 0
-421 745 0
748 -749 0
750 748 0
749 -750 -748 0
422 -748 0
-422 748 0
751 -752 0
753 751 0
752 -753 -751 0
423 -751 0
-423 751 0
754 -755 0
756 754 0
755 -756 -754 0
453 -754 0
-453 754 0
757 -758 0
759 757 0
758 -759 -757 0
456 -757 0
-456 757 0
760 -761 0
762 760 0
761 -762 -760 0
459 -760 0
-459 760 0
763 -764 0
765 763 0
764 -765 -763 0
460 -763 0
-460 763 0
766 -767 0
768 766 0
767 -768 -766 0
461 -766 0
-461 766 0
769 -770 0
771 769 0
770 -771 -769 0
493 -769 0
-493 769 0
772 -773 0
774 772 0
773 -774 -772 0
496 -772 0
-496 772 0
775 -776 0
777 775 0
776 -777 -775 0
499 -775 0
-499 775 0
778 -779 0
780 778 0
779 -780 -778 0
500 -778 0
-500 778 0
781 -782 0
783 781 0
782 -783 -781 0
501 -781 0
-501 781 0
784 -785 0
786 784 0
785 -786 -784 0
531 -784 0
-531 784 0
787 -788 0
789 787 0
788 -789 -787 0
534 -787 0
-534 787 0
790 -791 0
792 790 0
791 -792 -790 0
548 -790 0
-548 790 0
793 -794 0
795 793 0
794 -795 -793 0
551 -793 0
-551 793 0
796 -797 0
798 796 0
797 -798 -796 0
554 -796 0
-554 796 0
799 -800 0
801 799 0
800 -801 -799 0
555 -799 0
-555 799 0
802 -803 0
804 802 0
803 -804 -802 0
556 -802 0
-556 802 0
588 0
-591 0
594 0
597 0
-600 0
-603 0
606 0
609 0
-612 0
-615 0
-618 0
621 0
-624 0
-627 0
630 0
-633 0
-636 0
-639 0
-642 0
645 0
-648 0
-651 0
-654 0
657 0
660 0
663 0
666 0
669 0
-672 0
675 0
-678 0
681 0
-684 0
-687 0
690 0
-693 0
696 0
699 0
-702 0
-705 0
708 0
-711 0
-714 0
717 0
-720 0
-723 0
726 0
-729 0
732 0
735 0
738 0
-741 0
-744 0
747 0
-750 0
753 0
756 0
759 0
-762 0
765 0
-768 0
-771 0
774 0
777 0
-780 0
-783 0
-786 0
789 0
792 0
-795 0
798 0
801 0
-804 0
6 0
26 0
47 0
71 0
80 0
126 0
135 0
164 0
173 0
-189 0
-235 0
-285 0
-333 0
-399 0
-416 0
-454 0
-494 0
-532 0
-549 0
